0 9 8 6 8 5 1 1 8 5
9 0 4 2 1 5 3 1 6 5
8 4 0 3 7 3 4 5 5 3
6 2 3 0 7 3 9 7 8 1
8 1 7 7 0 7 6 3 8 3
5 5 3 3 7 0 6 4 9 9
1 3 4 9 6 6 0 7 3 2
1 1 5 7 3 4 7 0 2 7
8 6 5 8 8 9 3 2 0 5
5 5 3 1 3 9 2 7 5 0
